(set-logic LIA)

(synth-fun eq1 ( (x Int) (y Int) (w1 Int) ) Int (
(Start Int ( x
y
2
w1
(+ Start Start)
))
(NT2 Bool ( (>= Start Start) (>= Start Start)
))
))

(define-fun iteB (( b1 Bool ) (b2 Bool ) (b3 Bool )) Bool ( or ( and b1 b2 ) ( and (not b1 ) b3 ) ) )
(define-fun plus2 ((b1 Int) (b2 Int)) Int ( + b1 b2))
(define-fun plus3 ((b1 Int) (b2 Int) (b3 Int)) Int ( +  ( + b1 b2) b3))
(define-fun plus4 ((b1 Int) (b2 Int) (b3 Int) (b4 Int)) Int ( +  ( plus3  b1 b2 b3) b4))
(define-fun plus5 ((b1 Int) (b2 Int) (b3 Int) (b4 Int) (b5 Int)) Int (+  ( plus4 b1 b2 b3 b4) b5))
(define-fun plus6 ((b1 Int) (b2 Int) (b3 Int) (b4 Int) (b5 Int) (b6 Int) ) Int (+  ( plus5 b1 b2 b3 b4  b5) b6  ))
(define-fun plus7 ((b1 Int) (b2 Int) (b3 Int) (b4 Int) (b5 Int) (b6 Int) (b7 Int)) Int (+  ( plus6 b1 b2 b3 b4  b5 b6 ) b7  ))
(define-fun plus8 ((b1 Int) (b2 Int) (b3 Int) (b4 Int) (b5 Int) (b6 Int) (b7 Int) (be Int)) Int (+  ( plus7 b1 b2 b3 b4  b5 b6 b7) be  ))
(define-fun plus9 ((b1 Int) (b2 Int) (b3 Int) (b4 Int) (b5 Int) (b6 Int) (b7 Int) (be Int) (bn Int)) Int (+  ( plus8 b1 b2 b3 b4  b5 b6 b7 be) bn  ))



(declare-var x Int ) 
(declare-var y Int ) 
(declare-var z Int ) 


(constraint ( iteB ( >= (plus2 x y) 1 ) 
	            ( iteB ( >= (plus2 x z) 1 )
                         ( = (eq1 x y z)   ( + x 1 ) ) 
                         ( = (eq1 x y z )  ( + y 1 ) ) 
                     ) 
                     ( = (eq1 x y z)   ( + z 1 ) ) 
               
             )
)      





(check-synth)

